; --full-saturate-quant --inst-when=full-last-call --inst-no-entail --term-db-mode=relevant --random-seed=1 --lang=smt2 --tlimit 203
;(set-option :produce-unsat-cores true)
(set-logic ALL_SUPPORTED)
(declare-sort A$ 0)
(declare-sort A_set$ 0)
(declare-sort A_bool_fun$ 0)
(declare-sort A_stream_set$ 0)
(declare-sort A_stream_bool_fun$ 0)
(declare-sort A_stream_stream_set$ 0)
(declare-sort A_a_stream_bool_fun_fun$ 0)
(declare-sort A_stream_stream_bool_fun$ 0)
(declare-sort A_stream_stream_stream_set$ 0)
(declare-sort A_stream_stream_stream_bool_fun$ 0)
(declare-sort A_stream_stream_stream_stream_set$ 0)
(declare-sort A_stream_a_stream_stream_bool_fun_fun$ 0)
(declare-sort A_stream_stream_stream_stream_bool_fun$ 0)
(declare-sort A_stream_stream_a_stream_stream_stream_bool_fun_fun$ 0)
(declare-sort A_stream_stream_stream_a_stream_stream_stream_stream_bool_fun_fun$ 0)
(declare-codatatypes () ((A_stream$ (sCons$ (shd$ A$) (stl$ A_stream$)))
  (A_stream_stream$ (sCons$a (shd$a A_stream$) (stl$a A_stream_stream$)))
  (A_stream_stream_stream$ (sCons$b (shd$b A_stream_stream$) (stl$b A_stream_stream_stream$)))
  (A_stream_stream_stream_stream$ (sCons$c (shd$c A_stream_stream_stream$) (stl$c A_stream_stream_stream_stream$)))))
(declare-fun a$ () A_set$)
(declare-fun s$ () A_stream$)
(declare-fun x$ () A$)
(declare-fun sset$ (A_stream_stream_stream_stream$) A_stream_stream_stream_set$)
(declare-fun sset$a (A_stream_stream_stream$) A_stream_stream_set$)
(declare-fun sset$b (A_stream_stream$) A_stream_set$)
(declare-fun sset$c (A_stream$) A_set$)
(declare-fun member$ (A_stream$ A_stream_set$) Bool)
(declare-fun fun_app$ (A_stream_stream_stream_stream_bool_fun$ A_stream_stream_stream_stream$) Bool)
(declare-fun member$a (A$ A_set$) Bool)
(declare-fun member$b (A_stream_stream_stream_stream$ A_stream_stream_stream_stream_set$) Bool)
(declare-fun member$c (A_stream_stream_stream$ A_stream_stream_stream_set$) Bool)
(declare-fun member$d (A_stream_stream$ A_stream_stream_set$) Bool)
(declare-fun smember$ (A_stream_stream$) A_stream_stream_stream_bool_fun$)
(declare-fun streams$ (A_set$) A_stream_set$)
(declare-fun fun_app$a (A_stream_stream_stream_bool_fun$ A_stream_stream_stream$) Bool)
(declare-fun fun_app$b (A_stream_stream_bool_fun$ A_stream_stream$) Bool)
(declare-fun fun_app$c (A_stream_bool_fun$ A_stream$) Bool)
(declare-fun fun_app$d (A_bool_fun$ A$) Bool)
(declare-fun fun_app$e (A_stream_stream_stream_a_stream_stream_stream_stream_bool_fun_fun$ A_stream_stream_stream$) A_stream_stream_stream_stream_bool_fun$)
(declare-fun fun_app$f (A_stream_stream_a_stream_stream_stream_bool_fun_fun$ A_stream_stream$) A_stream_stream_stream_bool_fun$)
(declare-fun fun_app$g (A_stream_a_stream_stream_bool_fun_fun$ A_stream$) A_stream_stream_bool_fun$)
(declare-fun fun_app$h (A_a_stream_bool_fun_fun$ A$) A_stream_bool_fun$)
(declare-fun smember$a (A_stream$) A_stream_stream_bool_fun$)
(declare-fun smember$b (A$) A_stream_bool_fun$)
(declare-fun streams$a (A_stream_stream_stream_set$) A_stream_stream_stream_stream_set$)
(declare-fun streams$b (A_stream_stream_set$) A_stream_stream_stream_set$)
(declare-fun streams$c (A_stream_set$) A_stream_stream_set$)
(declare-fun streamsp$ (A_stream_stream_bool_fun$) A_stream_stream_stream_bool_fun$)
(declare-fun streamsp$a (A_stream_bool_fun$) A_stream_stream_bool_fun$)
(declare-fun streamsp$b (A_bool_fun$) A_stream_bool_fun$)
(declare-fun pred_stream$ (A_stream_stream_bool_fun$) A_stream_stream_stream_bool_fun$)
(declare-fun pred_stream$a (A_stream_bool_fun$) A_stream_stream_bool_fun$)
(declare-fun pred_stream$b (A_bool_fun$) A_stream_bool_fun$)
(assert (! (not (= (member$ (sCons$ x$ s$) (streams$ a$)) (and (member$a x$ a$) (member$ s$ (streams$ a$))))) :named a0))
(assert (! (forall ((?v0 A_stream_stream$) (?v1 A_stream_stream_stream$) (?v2 A_stream_stream$) (?v3 A_stream_stream_stream$)) (= (= (sCons$b ?v0 ?v1) (sCons$b ?v2 ?v3)) (and (= ?v0 ?v2) (= ?v1 ?v3)))) :named a1))
(assert (! (forall ((?v0 A_stream$) (?v1 A_stream_stream$) (?v2 A_stream$) (?v3 A_stream_stream$)) (= (= (sCons$a ?v0 ?v1) (sCons$a ?v2 ?v3)) (and (= ?v0 ?v2) (= ?v1 ?v3)))) :named a2))
(assert (! (forall ((?v0 A$) (?v1 A_stream$) (?v2 A$) (?v3 A_stream$)) (= (= (sCons$ ?v0 ?v1) (sCons$ ?v2 ?v3)) (and (= ?v0 ?v2) (= ?v1 ?v3)))) :named a3))
(assert (! (forall ((?v0 A_stream_stream_stream_stream$) (?v1 A_stream_stream_stream_set$)) (= (member$b ?v0 (streams$a ?v1)) (exists ((?v2 A_stream_stream_stream$) (?v3 A_stream_stream_stream_stream$)) (and (= ?v0 (sCons$c ?v2 ?v3)) (and (member$c ?v2 ?v1) (member$b ?v3 (streams$a ?v1))))))) :named a4))
(assert (! (forall ((?v0 A_stream_stream_stream$) (?v1 A_stream_stream_set$)) (= (member$c ?v0 (streams$b ?v1)) (exists ((?v2 A_stream_stream$) (?v3 A_stream_stream_stream$)) (and (= ?v0 (sCons$b ?v2 ?v3)) (and (member$d ?v2 ?v1) (member$c ?v3 (streams$b ?v1))))))) :named a5))
(assert (! (forall ((?v0 A_stream_stream$) (?v1 A_stream_set$)) (= (member$d ?v0 (streams$c ?v1)) (exists ((?v2 A_stream$) (?v3 A_stream_stream$)) (and (= ?v0 (sCons$a ?v2 ?v3)) (and (member$ ?v2 ?v1) (member$d ?v3 (streams$c ?v1))))))) :named a6))
(assert (! (forall ((?v0 A_stream$) (?v1 A_set$)) (= (member$ ?v0 (streams$ ?v1)) (exists ((?v2 A$) (?v3 A_stream$)) (and (= ?v0 (sCons$ ?v2 ?v3)) (and (member$a ?v2 ?v1) (member$ ?v3 (streams$ ?v1))))))) :named a7))
(assert (! (forall ((?v0 A_stream_stream_stream$)) (=> (forall ((?v1 A_stream_stream$) (?v2 A_stream_stream_stream$)) (=> (= ?v0 (sCons$b ?v1 ?v2)) false)) false)) :named a8))
(assert (! (forall ((?v0 A_stream_stream$)) (=> (forall ((?v1 A_stream$) (?v2 A_stream_stream$)) (=> (= ?v0 (sCons$a ?v1 ?v2)) false)) false)) :named a9))
(assert (! (forall ((?v0 A_stream$)) (=> (forall ((?v1 A$) (?v2 A_stream$)) (=> (= ?v0 (sCons$ ?v1 ?v2)) false)) false)) :named a10))
(assert (! (forall ((?v0 A_stream_stream_stream_stream$) (?v1 A_stream_stream_stream_set$)) (=> (and (member$b ?v0 (streams$a ?v1)) (forall ((?v2 A_stream_stream_stream$) (?v3 A_stream_stream_stream_stream$)) (=> (and (= ?v0 (sCons$c ?v2 ?v3)) (and (member$c ?v2 ?v1) (member$b ?v3 (streams$a ?v1)))) false))) false)) :named a11))
(assert (! (forall ((?v0 A_stream_stream_stream$) (?v1 A_stream_stream_set$)) (=> (and (member$c ?v0 (streams$b ?v1)) (forall ((?v2 A_stream_stream$) (?v3 A_stream_stream_stream$)) (=> (and (= ?v0 (sCons$b ?v2 ?v3)) (and (member$d ?v2 ?v1) (member$c ?v3 (streams$b ?v1)))) false))) false)) :named a12))
(assert (! (forall ((?v0 A_stream_stream$) (?v1 A_stream_set$)) (=> (and (member$d ?v0 (streams$c ?v1)) (forall ((?v2 A_stream$) (?v3 A_stream_stream$)) (=> (and (= ?v0 (sCons$a ?v2 ?v3)) (and (member$ ?v2 ?v1) (member$d ?v3 (streams$c ?v1)))) false))) false)) :named a13))
(assert (! (forall ((?v0 A_stream$) (?v1 A_set$)) (=> (and (member$ ?v0 (streams$ ?v1)) (forall ((?v2 A$) (?v3 A_stream$)) (=> (and (= ?v0 (sCons$ ?v2 ?v3)) (and (member$a ?v2 ?v1) (member$ ?v3 (streams$ ?v1)))) false))) false)) :named a14))
(assert (! (forall ((?v0 A_stream_stream_stream_stream_bool_fun$) (?v1 A_stream_stream_stream_stream$) (?v2 A_stream_stream_stream_set$)) (=> (and (fun_app$ ?v0 ?v1) (forall ((?v3 A_stream_stream_stream_stream$)) (=> (fun_app$ ?v0 ?v3) (exists ((?v4 A_stream_stream_stream$) (?v5 A_stream_stream_stream_stream$)) (and (= ?v3 (sCons$c ?v4 ?v5)) (and (member$c ?v4 ?v2) (or (fun_app$ ?v0 ?v5) (member$b ?v5 (streams$a ?v2))))))))) (member$b ?v1 (streams$a ?v2)))) :named a15))
(assert (! (forall ((?v0 A_stream_stream_stream_bool_fun$) (?v1 A_stream_stream_stream$) (?v2 A_stream_stream_set$)) (=> (and (fun_app$a ?v0 ?v1) (forall ((?v3 A_stream_stream_stream$)) (=> (fun_app$a ?v0 ?v3) (exists ((?v4 A_stream_stream$) (?v5 A_stream_stream_stream$)) (and (= ?v3 (sCons$b ?v4 ?v5)) (and (member$d ?v4 ?v2) (or (fun_app$a ?v0 ?v5) (member$c ?v5 (streams$b ?v2))))))))) (member$c ?v1 (streams$b ?v2)))) :named a16))
(assert (! (forall ((?v0 A_stream_stream_bool_fun$) (?v1 A_stream_stream$) (?v2 A_stream_set$)) (=> (and (fun_app$b ?v0 ?v1) (forall ((?v3 A_stream_stream$)) (=> (fun_app$b ?v0 ?v3) (exists ((?v4 A_stream$) (?v5 A_stream_stream$)) (and (= ?v3 (sCons$a ?v4 ?v5)) (and (member$ ?v4 ?v2) (or (fun_app$b ?v0 ?v5) (member$d ?v5 (streams$c ?v2))))))))) (member$d ?v1 (streams$c ?v2)))) :named a17))
(assert (! (forall ((?v0 A_stream_bool_fun$) (?v1 A_stream$) (?v2 A_set$)) (=> (and (fun_app$c ?v0 ?v1) (forall ((?v3 A_stream$)) (=> (fun_app$c ?v0 ?v3) (exists ((?v4 A$) (?v5 A_stream$)) (and (= ?v3 (sCons$ ?v4 ?v5)) (and (member$a ?v4 ?v2) (or (fun_app$c ?v0 ?v5) (member$ ?v5 (streams$ ?v2))))))))) (member$ ?v1 (streams$ ?v2)))) :named a18))
(assert (! (forall ((?v0 A_stream_stream$) (?v1 A_stream_stream$) (?v2 A_stream_stream_stream$)) (! (= (fun_app$a (smember$ ?v0) (sCons$b ?v1 ?v2)) (ite (= ?v0 ?v1) true (fun_app$a (smember$ ?v0) ?v2))) :pattern ((fun_app$a (smember$ ?v0) (sCons$b ?v1 ?v2))))) :named a19))
(assert (! (forall ((?v0 A_stream$) (?v1 A_stream$) (?v2 A_stream_stream$)) (! (= (fun_app$b (smember$a ?v0) (sCons$a ?v1 ?v2)) (ite (= ?v0 ?v1) true (fun_app$b (smember$a ?v0) ?v2))) :pattern ((fun_app$b (smember$a ?v0) (sCons$a ?v1 ?v2))))) :named a20))
(assert (! (forall ((?v0 A$) (?v1 A$) (?v2 A_stream$)) (! (= (fun_app$c (smember$b ?v0) (sCons$ ?v1 ?v2)) (ite (= ?v0 ?v1) true (fun_app$c (smember$b ?v0) ?v2))) :pattern ((fun_app$c (smember$b ?v0) (sCons$ ?v1 ?v2))))) :named a21))
(assert (! (forall ((?v0 A_stream_stream_bool_fun$) (?v1 A_stream_stream$) (?v2 A_stream_stream_stream$)) (! (= (fun_app$a (pred_stream$ ?v0) (sCons$b ?v1 ?v2)) (and (fun_app$b ?v0 ?v1) (fun_app$a (pred_stream$ ?v0) ?v2))) :pattern ((fun_app$a (pred_stream$ ?v0) (sCons$b ?v1 ?v2))))) :named a22))
(assert (! (forall ((?v0 A_stream_bool_fun$) (?v1 A_stream$) (?v2 A_stream_stream$)) (! (= (fun_app$b (pred_stream$a ?v0) (sCons$a ?v1 ?v2)) (and (fun_app$c ?v0 ?v1) (fun_app$b (pred_stream$a ?v0) ?v2))) :pattern ((fun_app$b (pred_stream$a ?v0) (sCons$a ?v1 ?v2))))) :named a23))
(assert (! (forall ((?v0 A_bool_fun$) (?v1 A$) (?v2 A_stream$)) (! (= (fun_app$c (pred_stream$b ?v0) (sCons$ ?v1 ?v2)) (and (fun_app$d ?v0 ?v1) (fun_app$c (pred_stream$b ?v0) ?v2))) :pattern ((fun_app$c (pred_stream$b ?v0) (sCons$ ?v1 ?v2))))) :named a24))
(assert (! (forall ((?v0 A_stream_stream_bool_fun$) (?v1 A_stream_stream_stream$)) (= (fun_app$a (streamsp$ ?v0) ?v1) (exists ((?v2 A_stream_stream$) (?v3 A_stream_stream_stream$)) (and (= ?v1 (sCons$b ?v2 ?v3)) (and (fun_app$b ?v0 ?v2) (fun_app$a (streamsp$ ?v0) ?v3)))))) :named a25))
(assert (! (forall ((?v0 A_stream_bool_fun$) (?v1 A_stream_stream$)) (= (fun_app$b (streamsp$a ?v0) ?v1) (exists ((?v2 A_stream$) (?v3 A_stream_stream$)) (and (= ?v1 (sCons$a ?v2 ?v3)) (and (fun_app$c ?v0 ?v2) (fun_app$b (streamsp$a ?v0) ?v3)))))) :named a26))
(assert (! (forall ((?v0 A_bool_fun$) (?v1 A_stream$)) (= (fun_app$c (streamsp$b ?v0) ?v1) (exists ((?v2 A$) (?v3 A_stream$)) (and (= ?v1 (sCons$ ?v2 ?v3)) (and (fun_app$d ?v0 ?v2) (fun_app$c (streamsp$b ?v0) ?v3)))))) :named a27))
(assert (! (forall ((?v0 A_stream_stream_bool_fun$) (?v1 A_stream_stream_stream$)) (=> (and (fun_app$a (streamsp$ ?v0) ?v1) (forall ((?v2 A_stream_stream$) (?v3 A_stream_stream_stream$)) (=> (and (= ?v1 (sCons$b ?v2 ?v3)) (and (fun_app$b ?v0 ?v2) (fun_app$a (streamsp$ ?v0) ?v3))) false))) false)) :named a28))
(assert (! (forall ((?v0 A_stream_bool_fun$) (?v1 A_stream_stream$)) (=> (and (fun_app$b (streamsp$a ?v0) ?v1) (forall ((?v2 A_stream$) (?v3 A_stream_stream$)) (=> (and (= ?v1 (sCons$a ?v2 ?v3)) (and (fun_app$c ?v0 ?v2) (fun_app$b (streamsp$a ?v0) ?v3))) false))) false)) :named a29))
(assert (! (forall ((?v0 A_bool_fun$) (?v1 A_stream$)) (=> (and (fun_app$c (streamsp$b ?v0) ?v1) (forall ((?v2 A$) (?v3 A_stream$)) (=> (and (= ?v1 (sCons$ ?v2 ?v3)) (and (fun_app$d ?v0 ?v2) (fun_app$c (streamsp$b ?v0) ?v3))) false))) false)) :named a30))
(assert (! (forall ((?v0 A_stream_stream_stream_bool_fun$) (?v1 A_stream_stream_stream$) (?v2 A_stream_stream_bool_fun$)) (=> (and (fun_app$a ?v0 ?v1) (forall ((?v3 A_stream_stream_stream$)) (=> (fun_app$a ?v0 ?v3) (exists ((?v4 A_stream_stream$) (?v5 A_stream_stream_stream$)) (and (= ?v3 (sCons$b ?v4 ?v5)) (and (fun_app$b ?v2 ?v4) (or (fun_app$a ?v0 ?v5) (fun_app$a (streamsp$ ?v2) ?v5)))))))) (fun_app$a (streamsp$ ?v2) ?v1))) :named a31))
(assert (! (forall ((?v0 A_stream_stream_bool_fun$) (?v1 A_stream_stream$) (?v2 A_stream_bool_fun$)) (=> (and (fun_app$b ?v0 ?v1) (forall ((?v3 A_stream_stream$)) (=> (fun_app$b ?v0 ?v3) (exists ((?v4 A_stream$) (?v5 A_stream_stream$)) (and (= ?v3 (sCons$a ?v4 ?v5)) (and (fun_app$c ?v2 ?v4) (or (fun_app$b ?v0 ?v5) (fun_app$b (streamsp$a ?v2) ?v5)))))))) (fun_app$b (streamsp$a ?v2) ?v1))) :named a32))
(assert (! (forall ((?v0 A_stream_bool_fun$) (?v1 A_stream$) (?v2 A_bool_fun$)) (=> (and (fun_app$c ?v0 ?v1) (forall ((?v3 A_stream$)) (=> (fun_app$c ?v0 ?v3) (exists ((?v4 A$) (?v5 A_stream$)) (and (= ?v3 (sCons$ ?v4 ?v5)) (and (fun_app$d ?v2 ?v4) (or (fun_app$c ?v0 ?v5) (fun_app$c (streamsp$b ?v2) ?v5)))))))) (fun_app$c (streamsp$b ?v2) ?v1))) :named a33))
(assert (! (forall ((?v0 A_stream_stream_stream$) (?v1 A_stream_stream_stream_stream$) (?v2 A_stream_stream_stream_a_stream_stream_stream_stream_bool_fun_fun$)) (=> (and (member$c ?v0 (sset$ ?v1)) (and (forall ((?v3 A_stream_stream_stream$) (?v4 A_stream_stream_stream_stream$)) (fun_app$ (fun_app$e ?v2 ?v3) (sCons$c ?v3 ?v4))) (forall ((?v3 A_stream_stream_stream$) (?v4 A_stream_stream_stream_stream$) (?v5 A_stream_stream_stream$)) (=> (and (member$c ?v5 (sset$ ?v4)) (fun_app$ (fun_app$e ?v2 ?v5) ?v4)) (fun_app$ (fun_app$e ?v2 ?v5) (sCons$c ?v3 ?v4)))))) (fun_app$ (fun_app$e ?v2 ?v0) ?v1))) :named a34))
(assert (! (forall ((?v0 A_stream_stream$) (?v1 A_stream_stream_stream$) (?v2 A_stream_stream_a_stream_stream_stream_bool_fun_fun$)) (=> (and (member$d ?v0 (sset$a ?v1)) (and (forall ((?v3 A_stream_stream$) (?v4 A_stream_stream_stream$)) (fun_app$a (fun_app$f ?v2 ?v3) (sCons$b ?v3 ?v4))) (forall ((?v3 A_stream_stream$) (?v4 A_stream_stream_stream$) (?v5 A_stream_stream$)) (=> (and (member$d ?v5 (sset$a ?v4)) (fun_app$a (fun_app$f ?v2 ?v5) ?v4)) (fun_app$a (fun_app$f ?v2 ?v5) (sCons$b ?v3 ?v4)))))) (fun_app$a (fun_app$f ?v2 ?v0) ?v1))) :named a35))
(assert (! (forall ((?v0 A_stream$) (?v1 A_stream_stream$) (?v2 A_stream_a_stream_stream_bool_fun_fun$)) (=> (and (member$ ?v0 (sset$b ?v1)) (and (forall ((?v3 A_stream$) (?v4 A_stream_stream$)) (fun_app$b (fun_app$g ?v2 ?v3) (sCons$a ?v3 ?v4))) (forall ((?v3 A_stream$) (?v4 A_stream_stream$) (?v5 A_stream$)) (=> (and (member$ ?v5 (sset$b ?v4)) (fun_app$b (fun_app$g ?v2 ?v5) ?v4)) (fun_app$b (fun_app$g ?v2 ?v5) (sCons$a ?v3 ?v4)))))) (fun_app$b (fun_app$g ?v2 ?v0) ?v1))) :named a36))
(assert (! (forall ((?v0 A$) (?v1 A_stream$) (?v2 A_a_stream_bool_fun_fun$)) (=> (and (member$a ?v0 (sset$c ?v1)) (and (forall ((?v3 A$) (?v4 A_stream$)) (fun_app$c (fun_app$h ?v2 ?v3) (sCons$ ?v3 ?v4))) (forall ((?v3 A$) (?v4 A_stream$) (?v5 A$)) (=> (and (member$a ?v5 (sset$c ?v4)) (fun_app$c (fun_app$h ?v2 ?v5) ?v4)) (fun_app$c (fun_app$h ?v2 ?v5) (sCons$ ?v3 ?v4)))))) (fun_app$c (fun_app$h ?v2 ?v0) ?v1))) :named a37))
(assert (! (forall ((?v0 A_stream_stream_stream$) (?v1 A_stream_stream_stream_stream$)) (=> (and (member$c ?v0 (sset$ ?v1)) (and (forall ((?v2 A_stream_stream_stream_stream$)) (=> (= ?v1 (sCons$c ?v0 ?v2)) false)) (forall ((?v2 A_stream_stream_stream$) (?v3 A_stream_stream_stream_stream$)) (=> (and (= ?v1 (sCons$c ?v2 ?v3)) (member$c ?v0 (sset$ ?v3))) false)))) false)) :named a38))
(assert (! (forall ((?v0 A_stream_stream$) (?v1 A_stream_stream_stream$)) (=> (and (member$d ?v0 (sset$a ?v1)) (and (forall ((?v2 A_stream_stream_stream$)) (=> (= ?v1 (sCons$b ?v0 ?v2)) false)) (forall ((?v2 A_stream_stream$) (?v3 A_stream_stream_stream$)) (=> (and (= ?v1 (sCons$b ?v2 ?v3)) (member$d ?v0 (sset$a ?v3))) false)))) false)) :named a39))
(assert (! (forall ((?v0 A_stream$) (?v1 A_stream_stream$)) (=> (and (member$ ?v0 (sset$b ?v1)) (and (forall ((?v2 A_stream_stream$)) (=> (= ?v1 (sCons$a ?v0 ?v2)) false)) (forall ((?v2 A_stream$) (?v3 A_stream_stream$)) (=> (and (= ?v1 (sCons$a ?v2 ?v3)) (member$ ?v0 (sset$b ?v3))) false)))) false)) :named a40))
(assert (! (forall ((?v0 A$) (?v1 A_stream$)) (=> (and (member$a ?v0 (sset$c ?v1)) (and (forall ((?v2 A_stream$)) (=> (= ?v1 (sCons$ ?v0 ?v2)) false)) (forall ((?v2 A$) (?v3 A_stream$)) (=> (and (= ?v1 (sCons$ ?v2 ?v3)) (member$a ?v0 (sset$c ?v3))) false)))) false)) :named a41))
(assert (! (forall ((?v0 A_stream_stream_stream$) (?v1 A_stream_stream_stream_stream$) (?v2 A_stream_stream_stream$)) (=> (member$c ?v0 (sset$ ?v1)) (member$c ?v0 (sset$ (sCons$c ?v2 ?v1))))) :named a42))
(assert (! (forall ((?v0 A_stream_stream$) (?v1 A_stream_stream_stream$) (?v2 A_stream_stream$)) (=> (member$d ?v0 (sset$a ?v1)) (member$d ?v0 (sset$a (sCons$b ?v2 ?v1))))) :named a43))
(assert (! (forall ((?v0 A_stream$) (?v1 A_stream_stream$) (?v2 A_stream$)) (=> (member$ ?v0 (sset$b ?v1)) (member$ ?v0 (sset$b (sCons$a ?v2 ?v1))))) :named a44))
(assert (! (forall ((?v0 A$) (?v1 A_stream$) (?v2 A$)) (=> (member$a ?v0 (sset$c ?v1)) (member$a ?v0 (sset$c (sCons$ ?v2 ?v1))))) :named a45))
(assert (! (forall ((?v0 A_stream_stream_stream$) (?v1 A_stream_stream_stream_stream$)) (member$c ?v0 (sset$ (sCons$c ?v0 ?v1)))) :named a46))
(assert (! (forall ((?v0 A_stream_stream$) (?v1 A_stream_stream_stream$)) (member$d ?v0 (sset$a (sCons$b ?v0 ?v1)))) :named a47))
(assert (! (forall ((?v0 A_stream$) (?v1 A_stream_stream$)) (member$ ?v0 (sset$b (sCons$a ?v0 ?v1)))) :named a48))
(assert (! (forall ((?v0 A$) (?v1 A_stream$)) (member$a ?v0 (sset$c (sCons$ ?v0 ?v1)))) :named a49))
(assert (! (forall ((?v0 A_stream_stream$) (?v1 A_stream_stream_stream$)) (! (= (shd$b (sCons$b ?v0 ?v1)) ?v0) :pattern ((sCons$b ?v0 ?v1)))) :named a50))
(assert (! (forall ((?v0 A_stream$) (?v1 A_stream_stream$)) (! (= (shd$a (sCons$a ?v0 ?v1)) ?v0) :pattern ((sCons$a ?v0 ?v1)))) :named a51))
(assert (! (forall ((?v0 A$) (?v1 A_stream$)) (! (= (shd$ (sCons$ ?v0 ?v1)) ?v0) :pattern ((sCons$ ?v0 ?v1)))) :named a52))
(check-sat)
;(get-unsat-core)
